50
0 1 0.43 0.18
0 2 0.66 0.04
0 3 0.85 0.21
0 4 0.58 0.22
0 5 0.63 0.19
0 6 0.61 0.08
0 7 0.55 0.01
0 8 0.54 0.21
0 9 0.68 0.18
0 10 0.54 0.14
0 11 0.66 0.12
0 12 0.56 0.08
0 13 0.39 0.2
0 14 0.65 0.18
0 15 0.66 0.14
0 16 0.68 0.16
0 17 0.76 0.24
0 18 0.46 0.22
0 19 0.45 0.16
0 20 0.42 0.15
0 21 0.66 0.12
0 22 0.54 0.22
0 23 0.3 0.22
0 24 0.54 0.11
0 25 0.46 0.15
0 26 0.71 0.2
0 27 0.52 0.16
0 28 0.46 0.17
0 29 0.62 0.12
0 30 0.72 0.19
0 31 0.58 0.22
0 32 0.67 0.11
0 33 0.8 0.15
0 34 0.48 0.26
0 35 0.55 0.2
0 36 0.54 0.14
0 37 0.55 0.18
0 38 0.76 0.2
0 39 0.62 0.15
0 40 0.47 0.18
0 41 0.69 0.23
0 42 0.76 0.12
0 43 0.54 0.21
0 44 0.58 0.14
0 45 0.78 0.1
0 46 0.64 0.18
0 47 0.78 0.1
0 48 0.22 0.1
0 49 0.7 0.16
1 2 0.7 0.2
1 3 0.48 0.22
1 4 0.31 0.18
1 5 0.56 0.22
1 6 0.32 0.16
1 7 0.26 0.18
1 8 0.52 0.2
1 9 0.59 0.12
1 10 0.46 0.08
1 11 0.66 0.25
1 12 0.71 0.15
1 13 0.56 0.14
1 14 0.5 0.04
1 15 0.5 0.04
1 16 0.55 0.24
1 17 0.74 0.16
1 18 0.46 0.12
1 19 0.54 0.02
1 20 0.59 0.11
1 21 0.7 0.2
1 22 0.52 0.16
1 23 0.52 0.18
1 24 0.56 0.16
1 25 0.66 0.18
1 26 0.56 0.12
1 27 0.54 0.22
1 28 0.4 0.21
1 29 0.41 0.06
1 30 0.65 0.22
1 31 0.48 0.22
1 32 0.8 0.24
1 33 0.7 0.22
1 34 0.52 0.14
1 35 0.82 0.3
1 36 0.44 0.21
1 37 0.69 0.2
1 38 0.68 0.25
1 39 0.74 0.23
1 40 0.47 0.12
1 41 0.26 0.1
1 42 0.68 0.2
1 43 0.73 0.15
1 44 0.46 0.15
1 45 0.83 0.24
1 46 0.72 0.14
1 47 0.63 0.18
1 48 0.5 0.22
1 49 0.43 0.24
2 3 0.66 0.23
2 4 0.48 0.18
2 5 0.38 0.2
2 6 0.38 0.04
2 7 0.64 0.03
2 8 0.32 0.21
2 9 0.53 0.16
2 10 0.62 0.12
2 11 0.42 0.16
2 12 0.51 0.12
2 13 0.72 0.24
2 14 0.54 0.22
2 15 0.66 0.18
2 16 0.6 0.12
2 17 0.67 0.24
2 18 0.67 0.26
2 19 0.6 0.2
2 20 0.62 0.17
2 21 0.46 0.08
2 22 0.56 0.2
2 23 0.56 0.18
2 24 0.35 0.15
2 25 0.7 0.16
2 26 0.43 0.16
2 27 0.48 0.2
2 28 0.61 0.19
2 29 0.53 0.16
2 30 0.64 0.2
2 31 0.54 0.18
2 32 0.58 0.13
2 33 0.71 0.17
2 34 0.46 0.22
2 35 0.62 0.24
2 36 0.7 0.18
2 37 0.7 0.2
2 38 0.78 0.22
2 39 0.54 0.11
2 40 0.54 0.2
2 41 0.58 0.26
2 42 0.48 0.16
2 43 0.67 0.23
2 44 0.6 0.18
2 45 0.86 0.14
2 46 0.22 0.14
2 47 0.46 0.06
2 48 0.64 0.14
2 49 0.6 0.12
3 4 0.69 0.18
3 5 0.42 0.28
3 6 0.46 0.23
3 7 0.66 0.2
3 8 0.6 0.26
3 9 0.66 0.2
3 10 0.46 0.16
3 11 0.74 0.26
3 12 0.58 0.16
3 13 0.75 0.31
3 14 0.54 0.18
3 15 0.58 0.22
3 16 0.54 0.29
3 17 0.4 0.24
3 18 0.64 0.2
3 19 0.74 0.2
3 20 0.7 0.29
3 21 0.49 0.26
3 22 0.51 0.08
3 23 0.57 0.12
3 24 0.61 0.19
3 25 0.66 0.24
3 26 0.74 0.18
3 27 0.6 0.16
3 28 0.7 0.04
3 29 0.6 0.24
3 30 0.73 0.2
3 31 0.62 0.14
3 32 0.75 0.22
3 33 0.52 0.23
3 34 0.64 0.18
3 35 0.72 0.28
3 36 0.68 0.22
3 37 0.66 0.2
3 38 0.57 0.23
3 39 0.55 0.16
3 40 0.53 0.1
3 41 0.64 0.18
3 42 0.56 0.23
3 43 0.41 0.13
3 44 0.49 0.26
3 45 0.52 0.24
3 46 0.44 0.16
3 47 0.28 0.24
3 48 0.68 0.22
3 49 0.6 0.27
4 5 0.46 0.18
4 6 0.5 0.17
4 7 0.5 0.21
4 8 0.48 0.08
4 9 0.48 0.24
4 10 0.51 0.23
4 11 0.6 0.22
4 12 0.48 0.21
4 13 0.73 0.18
4 14 0.54 0.14
4 15 0.59 0.17
4 16 0.68 0.25
4 17 0.61 0.24
4 18 0.5 0.22
4 19 0.66 0.16
4 20 0.72 0.25
4 21 0.39 0.13
4 22 0.68 0.16
4 23 0.74 0.12
4 24 0.41 0.18
4 25 0.36 0.14
4 26 0.48 0.18
4 27 0.73 0.21
4 28 0.37 0.14
4 29 0.5 0.19
4 30 0.34 0.16
4 31 0.66 0.24
4 32 0.58 0.24
4 33 0.63 0.2
4 34 0.22 0.04
4 35 0.64 0.2
4 36 0.56 0.21
4 37 0.57 0.19
4 38 0.58 0.15
4 39 0.46 0.24
4 40 0.16 0.09
4 41 0.57 0.08
4 42 0.52 0.22
4 43 0.61 0.12
4 44 0.4 0.08
4 45 0.71 0.2
4 46 0.7 0.16
4 47 0.63 0.15
4 48 0.48 0.24
4 49 0.12 0.09
5 6 0.57 0.16
5 7 0.72 0.18
5 8 0.37 0.1
5 9 0.5 0.12
5 10 0.53 0.16
5 11 0.36 0.2
5 12 0.32 0.12
5 13 0.56 0.24
5 14 0.46 0.22
5 15 0.65 0.22
5 16 0.7 0.24
5 17 0.7 0.3
5 18 0.61 0.3
5 19 0.72 0.2
5 20 0.52 0.24
5 21 0.49 0.16
5 22 0.32 0.24
5 23 0.52 0.23
5 24 0.48 0.15
5 25 0.58 0.04
5 26 0.6 0.2
5 27 0.64 0.27
5 28 0.4 0.24
5 29 0.54 0.24
5 30 0.56 0.08
5 31 0.52 0.28
5 32 0.63 0.18
5 33 0.6 0.19
5 34 0.55 0.22
5 35 0.3 0.22
5 36 0.66 0.18
5 37 0.76 0.27
5 38 0.8 0.24
5 39 0.38 0.23
5 40 0.5 0.24
5 41 0.63 0.26
5 42 0.63 0.19
5 43 0.75 0.27
5 44 0.77 0.24
5 45 0.74 0.22
5 46 0.6 0.22
5 47 0.61 0.14
5 48 0.64 0.21
5 49 0.34 0.18
6 7 0.4 0.07
6 8 0.5 0.18
6 9 0.5 0.12
6 10 0.32 0.08
6 11 0.51 0.13
6 12 0.61 0.16
6 13 0.69 0.23
6 14 0.52 0.18
6 15 0.44 0.14
6 16 0.34 0.08
6 17 0.59 0.2
6 18 0.32 0.23
6 19 0.75 0.16
6 20 0.8 0.18
6 21 0.38 0.04
6 22 0.25 0.16
6 23 0.44 0.19
6 24 0.6 0.16
6 25 0.64 0.12
6 26 0.6 0.13
6 27 0.57 0.2
6 28 0.65 0.19
6 29 0.7 0.16
6 30 0.78 0.16
6 31 0.16 0.14
6 32 0.48 0.17
6 33 0.41 0.17
6 34 0.5 0.21
6 35 0.64 0.21
6 36 0.34 0.18
6 37 0.54 0.21
6 38 0.8 0.21
6 39 0.6 0.07
6 40 0.34 0.16
6 41 0.58 0.22
6 42 0.6 0.14
6 43 0.68 0.19
6 44 0.6 0.22
6 45 0.61 0.11
6 46 0.48 0.15
6 47 0.46 0.02
6 48 0.39 0.16
6 49 0.6 0.08
7 8 0.47 0.2
7 9 0.63 0.17
7 10 0.2 0.13
7 11 0.57 0.13
7 12 0.45 0.09
7 13 0.64 0.21
7 14 0.6 0.19
7 15 0.32 0.15
7 16 0.37 0.15
7 17 0.66 0.25
7 18 0.62 0.23
7 19 0.42 0.17
7 20 0.72 0.14
7 21 0.62 0.11
7 22 0.56 0.21
7 23 0.74 0.21
7 24 0.5 0.12
7 25 0.68 0.14
7 26 0.6 0.19
7 27 0.28 0.17
7 28 0.56 0.16
7 29 0.41 0.13
7 30 0.6 0.18
7 31 0.48 0.21
7 32 0.76 0.1
7 33 0.71 0.14
7 34 0.64 0.25
7 35 0.58 0.21
7 36 0.38 0.15
7 37 0.43 0.17
7 38 0.71 0.19
7 39 0.77 0.14
7 40 0.55 0.17
7 41 0.42 0.24
7 42 0.54 0.13
7 43 0.56 0.2
7 44 0.41 0.15
7 45 0.68 0.11
7 46 0.68 0.17
7 47 0.44 0.09
7 48 0.38 0.11
7 49 0.38 0.15
8 9 0.58 0.22
8 10 0.52 0.24
8 11 0.51 0.27
8 12 0.69 0.22
8 13 0.66 0.14
8 14 0.46 0.22
8 15 0.64 0.18
8 16 0.52 0.26
8 17 0.68 0.32
8 18 0.66 0.26
8 19 0.56 0.2
8 20 0.44 0.26
8 21 0.66 0.18
8 22 0.25 0.19
8 23 0.66 0.2
8 24 0.66 0.25
8 25 0.38 0.06
8 26 0.48 0.26
8 27 0.57 0.27
8 28 0.32 0.22
8 29 0.73 0.16
8 30 0.64 0.1
8 31 0.56 0.32
8 32 0.63 0.2
8 33 0.66 0.24
8 34 0.47 0.12
8 35 0.3 0.22
8 36 0.62 0.24
8 37 0.64 0.27
8 38 0.46 0.23
8 39 0.69 0.25
8 40 0.64 0.17
8 41 0.26 0.16
8 42 0.26 0.21
8 43 0.56 0.2
8 44 0.4 0.16
8 45 0.72 0.25
8 46 0.54 0.24
8 47 0.68 0.16
8 48 0.32 0.23
8 49 0.6 0.17
9 10 0.7 0.04
9 11 0.74 0.25
9 12 0.52 0.13
9 13 0.64 0.2
9 14 0.48 0.1
9 15 0.58 0.1
9 16 0.56 0.2
9 17 0.72 0.22
9 18 0.56 0.18
9 19 0.52 0.12
9 20 0.58 0.21
9 21 0.36 0.16
9 22 0.54 0.12
9 23 0.38 0.14
9 24 0.68 0.16
9 25 0.49 0.16
9 26 0.1 0.08
9 27 0.42 0.2
9 28 0.35 0.24
9 29 0.66 0.12
9 30 0.3 0.16
9 31 0.38 0.16
9 32 0.46 0.16
9 33 0.58 0.2
9 34 0.26 0.2
9 35 0.59 0.33
9 36 0.25 0.19
9 37 0.34 0.15
9 38 0.76 0.16
9 39 0.5 0.14
9 40 0.44 0.18
9 41 0.5 0.16
9 42 0.61 0.2
9 43 0.8 0.21
9 44 0.46 0.22
9 45 0.7 0.23
9 46 0.56 0.1
9 47 0.74 0.14
9 48 0.52 0.22
9 49 0.36 0.18
10 11 0.71 0.21
10 12 0.36 0.17
10 13 0.53 0.16
10 14 0.6 0.1
10 15 0.12 0.06
10 16 0.57 0.16
10 17 0.62 0.22
10 18 0.64 0.18
10 19 0.62 0.08
10 20 0.52 0.17
10 21 0.42 0.12
10 22 0.57 0.08
10 23 0.58 0.12
10 24 0.52 0.14
10 25 0.53 0.2
10 26 0.6 0.12
10 27 0.48 0.16
10 28 0.66 0.2
10 29 0.38 0.08
10 30 0.66 0.2
10 31 0.48 0.2
10 32 0.74 0.2
10 33 0.52 0.24
10 34 0.73 0.19
10 35 0.72 0.29
10 36 0.58 0.23
10 37 0.62 0.19
10 38 0.74 0.2
10 39 0.67 0.15
10 40 0.35 0.18
10 41 0.62 0.15
10 42 0.61 0.18
10 43 0.36 0.21
10 44 0.6 0.21
10 45 0.68 0.19
10 46 0.48 0.14
10 47 0.24 0.1
10 48 0.58 0.2
10 49 0.46 0.16
11 12 0.63 0.2
11 13 0.55 0.31
11 14 0.45 0.21
11 15 0.59 0.25
11 16 0.54 0.14
11 17 0.72 0.25
11 18 0.25 0.13
11 19 0.64 0.23
11 20 0.52 0.2
11 21 0.73 0.09
11 22 0.26 0.18
11 23 0.38 0.22
11 24 0.77 0.21
11 25 0.67 0.21
11 26 0.64 0.24
11 27 0.32 0.26
11 28 0.67 0.24
11 29 0.66 0.23
11 30 0.68 0.25
11 31 0.66 0.27
11 32 0.64 0.14
11 33 0.56 0.18
11 34 0.67 0.24
11 35 0.44 0.08
11 36 0.54 0.19
11 37 0.59 0.16
11 38 0.6 0.19
11 39 0.47 0.19
11 40 0.74 0.17
11 41 0.74 0.27
11 42 0.41 0.2
11 43 0.69 0.2
11 44 0.48 0.26
11 45 0.44 0.02
11 46 0.64 0.25
11 47 0.53 0.11
11 48 0.58 0.22
11 49 0.7 0.13
12 13 0.54 0.19
12 14 0.58 0.19
12 15 0.48 0.15
12 16 0.56 0.13
12 17 0.48 0.18
12 18 0.38 0.2
12 19 0.4 0.17
12 20 0.44 0.23
12 21 0.66 0.15
12 22 0.44 0.22
12 23 0.48 0.18
12 24 0.16 0.03
12 25 0.71 0.16
12 26 0.62 0.16
12 27 0.44 0.15
12 28 0.65 0.12
12 29 0.5 0.17
12 30 0.55 0.2
12 31 0.45 0.16
12 32 0.7 0.11
12 33 0.52 0.07
12 34 0.54 0.23
12 35 0.53 0.24
12 36 0.58 0.06
12 37 0.7 0.21
12 38 0.7 0.12
12 39 0.58 0.17
12 40 0.63 0.22
12 41 0.64 0.24
12 42 0.74 0.07
12 43 0.48 0.25
12 44 0.72 0.22
12 45 0.47 0.18
12 46 0.55 0.14
12 47 0.56 0.17
12 48 0.76 0.09
12 49 0.48 0.17
13 14 0.36 0.14
13 15 0.41 0.1
13 16 0.78 0.26
13 17 0.61 0.26
13 18 0.56 0.18
13 19 0.62 0.12
13 20 0.58 0.21
13 21 0.4 0.27
13 22 0.66 0.24
13 23 0.56 0.22
13 24 0.7 0.16
13 25 0.46 0.2
13 26 0.58 0.18
13 27 0.61 0.25
13 28 0.67 0.28
13 29 0.23 0.08
13 30 0.63 0.24
13 31 0.64 0.29
13 32 0.44 0.29
13 33 0.72 0.25
13 34 0.52 0.14
13 35 0.72 0.3
13 36 0.7 0.24
13 37 0.62 0.26
13 38 0.61 0.25
13 39 0.54 0.3
13 40 0.74 0.22
13 41 0.55 0.18
13 42 0.73 0.2
13 43 0.62 0.25
13 44 0.64 0.25
13 45 0.83 0.3
13 46 0.56 0.2
13 47 0.48 0.25
13 48 0.61 0.22
13 49 0.61 0.27
14 15 0.54 0.04
14 16 0.42 0.24
14 17 0.44 0.12
14 18 0.2 0.08
14 19 0.52 0.02
14 20 0.64 0.11
14 21 0.65 0.22
14 22 0.32 0.18
14 23 0.36 0.14
14 24 0.62 0.16
14 25 0.6 0.18
14 26 0.5 0.08
14 27 0.64 0.2
14 28 0.7 0.2
14 29 0.59 0.06
14 30 0.66 0.22
14 31 0.56 0.18
14 32 0.7 0.2
14 33 0.44 0.2
14 34 0.55 0.1
14 35 0.36 0.26
14 36 0.45 0.19
14 37 0.6 0.16
14 38 0.64 0.21
14 39 0.62 0.24
14 40 0.38 0.08
14 41 0.72 0.06
14 42 0.6 0.2
14 43 0.75 0.11
14 44 0.34 0.15
14 45 0.57 0.2
14 46 0.62 0.1
14 47 0.4 0.2
14 48 0.58 0.22
14 49 0.51 0.23
15 16 0.69 0.22
15 17 0.5 0.16
15 18 0.66 0.12
15 19 0.74 0.02
15 20 0.46 0.11
15 21 0.3 0.18
15 22 0.67 0.14
15 23 0.59 0.18
15 24 0.6 0.12
15 25 0.41 0.18
15 26 0.48 0.12
15 27 0.6 0.18
15 28 0.64 0.21
15 29 0.26 0.02
15 30 0.66 0.22
15 31 0.6 0.22
15 32 0.71 0.23
15 33 0.62 0.19
15 34 0.74 0.13
15 35 0.69 0.28
15 36 0.6 0.18
15 37 0.69 0.2
15 38 0.62 0.24
15 39 0.63 0.21
15 40 0.43 0.12
15 41 0.6 0.09
15 42 0.73 0.16
15 43 0.48 0.15
15 44 0.68 0.15
15 45 0.72 0.24
15 46 0.56 0.14
15 47 0.36 0.16
15 48 0.64 0.18
15 49 0.57 0.22
16 17 0.66 0.28
16 18 0.3 0.16
16 19 0.78 0.24
16 20 0.78 0.26
16 21 0.72 0.12
16 22 0.52 0.22
16 23 0.46 0.26
16 24 0.66 0.1
16 25 0.6 0.2
16 26 0.66 0.21
16 27 0.45 0.14
16 28 0.61 0.25
16 29 0.58 0.24
16 30 0.44 0.24
16 31 0.18 0.18
16 32 0.6 0.24
16 33 0.73 0.2
16 34 0.46 0.28
16 35 0.58 0.22
16 36 0.62 0.19
16 37 0.45 0.2
16 38 0.56 0.25
16 39 0.4 0.15
16 40 0.68 0.21
16 41 0.78 0.28
16 42 0.26 0.06
16 43 0.68 0.18
16 44 0.62 0.29
16 45 0.67 0.12
16 46 0.68 0.23
16 47 0.74 0.1
16 48 0.58 0.08
16 49 0.58 0.16
17 18 0.64 0.2
17 19 0.55 0.14
17 20 0.46 0.23
17 21 0.4 0.16
17 22 0.76 0.16
17 23 0.59 0.12
17 24 0.32 0.21
17 25 0.57 0.28
17 26 0.66 0.18
17 27 0.7 0.24
17 28 0.66 0.28
17 29 0.38 0.18
17 30 0.62 0.32
17 31 0.75 0.22
17 32 0.58 0.15
17 33 0.34 0.11
17 34 0.79 0.2
17 35 0.59 0.3
17 36 0.55 0.12
17 37 0.38 0.26
17 38 0.75 0.16
17 39 0.33 0.18
17 40 0.77 0.2
17 41 0.48 0.18
17 42 0.81 0.25
17 43 0.48 0.19
17 44 0.78 0.27
17 45 0.68 0.23
17 46 0.6 0.16
17 47 0.6 0.18
17 48 0.54 0.27
17 49 0.49 0.2
18 19 0.52 0.1
18 20 0.48 0.19
18 21 0.48 0.19
18 22 0.51 0.12
18 23 0.56 0.16
18 24 0.54 0.23
18 25 0.72 0.26
18 26 0.64 0.16
18 27 0.48 0.2
18 28 0.57 0.24
18 29 0.79 0.1
18 30 0.46 0.3
18 31 0.48 0.26
18 32 0.8 0.24
18 33 0.63 0.27
18 34 0.42 0.18
18 35 0.56 0.21
18 36 0.62 0.26
18 37 0.5 0.24
18 38 0.82 0.29
18 39 0.58 0.29
18 40 0.49 0.16
18 41 0.72 0.14
18 42 0.44 0.22
18 43 0.67 0.19
18 44 0.54 0.23
18 45 0.37 0.12
18 46 0.47 0.18
18 47 0.54 0.21
18 48 0.48 0.24
18 49 0.61 0.23
19 20 0.38 0.09
19 21 0.74 0.2
19 22 0.57 0.16
19 23 0.51 0.16
19 24 0.53 0.14
19 25 0.57 0.16
19 26 0.62 0.1
19 27 0.51 0.2
19 28 0.86 0.19
19 29 0.48 0.04
19 30 0.72 0.2
19 31 0.79 0.2
19 32 0.48 0.22
19 33 0.49 0.21
19 34 0.71 0.12
19 35 0.84 0.28
19 36 0.77 0.2
19 37 0.84 0.18
19 38 0.72 0.23
19 39 0.6 0.23
19 40 0.63 0.1
19 41 0.54 0.08
19 42 0.82 0.18
19 43 0.38 0.13
19 44 0.44 0.13
19 45 0.46 0.22
19 46 0.38 0.12
19 47 0.62 0.18
19 48 0.45 0.2
19 49 0.71 0.24
20 21 0.51 0.18
20 22 0.69 0.25
20 23 0.64 0.25
20 24 0.59 0.23
20 25 0.41 0.2
20 26 0.68 0.19
20 27 0.65 0.29
20 28 0.65 0.28
20 29 0.72 0.13
20 30 0.6 0.16
20 31 0.8 0.29
20 32 0.62 0.24
20 33 0.68 0.25
20 34 0.5 0.21
20 35 0.74 0.28
20 36 0.71 0.26
20 37 0.84 0.27
20 38 0.34 0.2
20 39 0.66 0.25
20 40 0.64 0.19
20 41 0.7 0.17
20 42 0.64 0.27
20 43 0.52 0.22
20 44 0.64 0.22
20 45 0.36 0.22
20 46 0.72 0.21
20 47 0.65 0.16
20 48 0.64 0.25
20 49 0.78 0.2
21 22 0.63 0.2
21 23 0.74 0.2
21 24 0.58 0.12
21 25 0.6 0.12
21 26 0.26 0.17
21 27 0.58 0.2
21 28 0.34 0.23
21 29 0.54 0.2
21 30 0.49 0.16
21 31 0.54 0.18
21 32 0.7 0.19
21 33 0.32 0.21
21 34 0.49 0.17
21 35 0.39 0.17
21 36 0.61 0.21
21 37 0.63 0.21
21 38 0.46 0.25
21 39 0.73 0.11
21 40 0.55 0.16
21 41 0.7 0.21
21 42 0.58 0.16
21 43 0.44 0.19
21 44 0.48 0.21
21 45 0.62 0.07
21 46 0.5 0.16
21 47 0.48 0.02
21 48 0.52 0.18
21 49 0.27 0.04
22 23 0.64 0.04
22 24 0.59 0.2
22 25 0.63 0.25
22 26 0.64 0.1
22 27 0.32 0.08
22 28 0.41 0.12
22 29 0.69 0.16
22 30 0.62 0.28
22 31 0.41 0.22
22 32 0.38 0.14
22 33 0.51 0.18
22 34 0.56 0.12
22 35 0.55 0.26
22 36 0.59 0.19
22 37 0.66 0.18
22 38 0.56 0.22
22 39 0.6 0.23
22 40 0.59 0.18
22 41 0.51 0.16
22 42 0.51 0.16
22 43 0.43 0.21
22 44 0.46 0.24
22 45 0.48 0.16
22 46 0.53 0.08
22 47 0.44 0.18
22 48 0.32 0.14
22 49 0.66 0.24
23 24 0.46 0.21
23 25 0.52 0.26
23 26 0.48 0.06
23 27 0.7 0.12
23 28 0.51 0.16
23 29 0.33 0.2
23 30 0.61 0.27
23 31 0.28 0.18
23 32 0.7 0.18
23 33 0.8 0.18
23 34 0.52 0.08
23 35 0.55 0.24
23 36 0.63 0.19
23 37 0.64 0.14
23 38 0.46 0.18
23 39 0.52 0.26
23 40 0.7 0.21
23 41 0.74 0.12
23 42 0.72 0.2
23 43 0.58 0.22
23 44 0.7 0.2
23 45 0.56 0.2
23 46 0.34 0.04
23 47 0.48 0.18
23 48 0.52 0.18
23 49 0.71 0.21
24 25 0.61 0.19
24 26 0.6 0.19
24 27 0.46 0.12
24 28 0.71 0.15
24 29 0.57 0.14
24 30 0.39 0.23
24 31 0.61 0.13
24 32 0.68 0.14
24 33 0.36 0.1
24 34 0.56 0.22
24 35 0.69 0.27
24 36 0.6 0.09
24 37 0.54 0.18
24 38 0.78 0.15
24 39 0.48 0.2
24 40 0.57 0.24
24 41 0.74 0.21
24 42 0.58 0.04
24 43 0.32 0.26
24 44 0.56 0.25
24 45 0.58 0.19
24 46 0.52 0.17
24 47 0.72 0.14
24 48 0.64 0.06
24 49 0.32 0.14
25 26 0.59 0.24
25 27 0.64 0.28
25 28 0.64 0.28
25 29 0.67 0.2
25 30 0.26 0.04
25 31 0.64 0.26
25 32 0.3 0.14
25 33 0.7 0.18
25 34 0.58 0.18
25 35 0.6 0.26
25 36 0.3 0.18
25 37 0.6 0.31
25 38 0.61 0.23
25 39 0.56 0.19
25 40 0.52 0.23
25 41 0.4 0.22
25 42 0.64 0.23
25 43 0.78 0.26
25 44 0.61 0.2
25 45 0.77 0.19
25 46 0.51 0.24
25 47 0.71 0.1
25 48 0.66 0.25
25 49 0.48 0.14
26 27 0.32 0.18
26 28 0.25 0.22
26 29 0.56 0.14
26 30 0.4 0.24
26 31 0.48 0.24
26 32 0.56 0.24
26 33 0.58 0.23
26 34 0.36 0.14
26 35 0.49 0.3
26 36 0.35 0.22
26 37 0.38 0.08
26 38 0.66 0.2
26 39 0.6 0.2
26 40 0.5 0.16
26 41 0.6 0.14
26 42 0.7 0.22
26 43 0.7 0.19
26 44 0.36 0.14
26 45 0.8 0.22
26 46 0.46 0.02
26 47 0.64 0.15
26 48 0.62 0.21
26 49 0.46 0.21
27 28 0.57 0.2
27 29 0.38 0.17
27 30 0.71 0.32
27 31 0.63 0.25
27 32 0.54 0.16
27 33 0.67 0.2
27 34 0.64 0.2
27 35 0.76 0.3
27 36 0.6 0.21
27 37 0.34 0.22
27 38 0.6 0.25
27 39 0.79 0.21
27 40 0.75 0.12
27 41 0.66 0.18
27 42 0.71 0.08
27 43 0.66 0.15
27 44 0.48 0.27
27 45 0.76 0.24
27 46 0.56 0.16
27 47 0.32 0.18
27 48 0.6 0.06
27 49 0.61 0.22
28 29 0.81 0.23
28 30 0.38 0.24
28 31 0.66 0.1
28 32 0.48 0.23
28 33 0.6 0.19
28 34 0.15 0.14
28 35 0.51 0.3
28 36 0.6 0.18
28 37 0.63 0.24
28 38 0.54 0.19
28 39 0.66 0.12
28 40 0.53 0.14
28 41 0.36 0.14
28 42 0.56 0.19
28 43 0.71 0.17
28 44 0.61 0.22
28 45 0.55 0.22
28 46 0.66 0.2
28 47 0.42 0.21
28 48 0.41 0.21
28 49 0.49 0.23
29 30 0.58 0.24
29 31 0.61 0.24
29 32 0.54 0.21
29 33 0.7 0.17
29 34 0.72 0.15
29 35 0.54 0.3
29 36 0.5 0.16
29 37 0.43 0.22
29 38 0.38 0.22
29 39 0.71 0.23
29 40 0.66 0.14
29 41 0.47 0.11
29 42 0.5 0.18
29 43 0.4 0.17
29 44 0.68 0.17
29 45 0.85 0.22
29 46 0.55 0.16
29 47 0.52 0.18
29 48 0.64 0.2
29 49 0.38 0.23
30 31 0.62 0.23
30 32 0.56 0.18
30 33 0.5 0.22
30 34 0.34 0.2
30 35 0.47 0.3
30 36 0.55 0.22
30 37 0.64 0.31
30 38 0.54 0.27
30 39 0.62 0.23
30 40 0.5 0.25
30 41 0.63 0.24
30 42 0.52 0.27
30 43 0.71 0.28
30 44 0.74 0.16
30 45 0.58 0.23
30 46 0.42 0.23
30 47 0.45 0.14
30 48 0.6 0.29
30 49 0.22 0.15
31 32 0.64 0.24
31 33 0.57 0.22
31 34 0.64 0.24
31 35 0.48 0.34
31 36 0.5 0.22
31 37 0.63 0.24
31 38 0.66 0.27
31 39 0.58 0.12
31 40 0.5 0.24
31 41 0.71 0.24
31 42 0.44 0.17
31 43 0.56 0.27
31 44 0.44 0.32
31 45 0.54 0.25
31 46 0.62 0.22
31 47 0.62 0.16
31 48 0.4 0.19
31 49 0.57 0.22
32 33 0.7 0.04
32 34 0.63 0.2
32 35 0.81 0.22
32 36 0.52 0.05
32 37 0.79 0.2
32 38 0.74 0.09
32 39 0.64 0.12
32 40 0.6 0.27
32 41 0.6 0.24
32 42 0.46 0.18
32 43 0.81 0.25
32 44 0.54 0.25
32 45 0.56 0.12
32 46 0.36 0.22
32 47 0.6 0.19
32 48 0.58 0.2
32 49 0.46 0.23
33 34 0.45 0.16
33 35 0.56 0.19
33 36 0.74 0.01
33 37 0.36 0.16
33 38 0.78 0.05
33 39 0.56 0.1
33 40 0.52 0.24
33 41 0.72 0.2
33 42 0.47 0.14
33 43 0.52 0.21
33 44 0.78 0.28
33 45 0.52 0.16
33 46 0.6 0.21
33 47 0.36 0.19
33 48 0.71 0.16
33 49 0.51 0.24
34 35 0.47 0.16
34 36 0.51 0.17
34 37 0.6 0.22
34 38 0.69 0.11
34 39 0.66 0.26
34 40 0.38 0.13
34 41 0.51 0.04
34 42 0.71 0.24
34 43 0.56 0.16
34 44 0.5 0.12
34 45 0.49 0.24
34 46 0.66 0.12
34 47 0.57 0.19
34 48 0.26 0.22
34 49 0.34 0.13
35 36 0.48 0.18
35 37 0.66 0.24
35 38 0.74 0.24
35 39 0.68 0.27
35 40 0.56 0.18
35 41 0.56 0.2
35 42 0.35 0.26
35 43 0.68 0.21
35 44 0.66 0.28
35 45 0.65 0.1
35 46 0.54 0.28
35 47 0.64 0.19
35 48 0.53 0.28
35 49 0.52 0.21
36 37 0.38 0.17
36 38 0.7 0.06
36 39 0.42 0.11
36 40 0.44 0.23
36 41 0.7 0.21
36 42 0.36 0.13
36 43 0.76 0.2
36 44 0.64 0.28
36 45 0.5 0.17
36 46 0.48 0.2
36 47 0.6 0.2
36 48 0.36 0.15
36 49 0.61 0.23
37 38 0.78 0.12
37 39 0.5 0.26
37 40 0.68 0.1
37 41 0.58 0.22
37 42 0.5 0.14
37 43 0.77 0.13
37 44 0.74 0.22
37 45 0.86 0.14
37 46 0.56 0.1
37 47 0.66 0.23
37 48 0.52 0.16
37 49 0.52 0.25
38 39 0.42 0.15
38 40 0.46 0.19
38 41 0.51 0.15
38 42 0.64 0.19
38 43 0.56 0.16
38 44 0.3 0.23
38 45 0.7 0.21
38 46 0.74 0.22
38 47 0.72 0.23
38 48 0.57 0.21
38 49 0.46 0.24
39 40 0.49 0.23
39 41 0.68 0.26
39 42 0.48 0.17
39 43 0.6 0.26
39 44 0.72 0.29
39 45 0.36 0.17
39 46 0.32 0.22
39 47 0.53 0.09
39 48 0.4 0.15
39 49 0.55 0.15
40 41 0.73 0.14
40 42 0.52 0.2
40 43 0.45 0.03
40 44 0.56 0.17
40 45 0.85 0.15
40 46 0.76 0.18
40 47 0.59 0.14
40 48 0.64 0.18
40 49 0.28 0.18
41 42 0.52 0.22
41 43 0.48 0.17
41 44 0.38 0.16
41 45 0.65 0.26
41 46 0.73 0.16
41 47 0.78 0.23
41 48 0.52 0.2
41 49 0.6 0.17
42 43 0.59 0.22
42 44 0.65 0.23
42 45 0.81 0.18
42 46 0.7 0.21
42 47 0.48 0.16
42 48 0.54 0.02
42 49 0.4 0.18
43 44 0.5 0.2
43 45 0.78 0.18
43 46 0.62 0.21
43 47 0.6 0.17
43 48 0.58 0.21
43 49 0.64 0.21
44 45 0.57 0.24
44 46 0.82 0.16
44 47 0.6 0.23
44 48 0.42 0.21
44 49 0.52 0.17
45 46 0.68 0.23
45 47 0.44 0.09
45 48 0.69 0.2
45 49 0.76 0.11
46 47 0.24 0.14
46 48 0.49 0.19
46 49 0.58 0.2
47 48 0.66 0.18
47 49 0.61 0.06
48 49 0.6 0.16
